; benchmark generated from python API
(set-info :status unknown)
(declare-fun x_months () Int)
(declare-fun x_beta () Int)
(assert
 (<= (- 1200) x_months))
(assert
 (>= 1199 x_months))
(assert
 (>= x_beta 0))
(assert
 (let ((?x2915 (+ x_months 24003)))
 (let ((?x3585 (- ?x2915 (* (div (- ?x2915 1) 12) 12))))
 (let ((?x2425 (ite (or (= ?x3585 4) (= ?x3585 6) (= ?x3585 9) (= ?x3585 11)) 30 31)))
 (let (($x912 (and (= (mod (div (- ?x2915 1) 12) 4) 0) (and (distinct (mod (div (- ?x2915 1) 12) 100) 0) true))))
 (let ((?x2098 (ite (or $x912 (= (mod (div (- ?x2915 1) 12) 400) 0)) 29 28)))
 (< x_beta (ite (= ?x3585 2) ?x2098 ?x2425))))))))
(assert
 (let (($x3568 (and (= x_months (- (+ (* 2019 12) 12) 24003)) (<= 0 x_beta))))
 (or (> x_months (- (+ (* 2019 12) 12) 24003)) $x3568)))
(assert
 (let (($x1667 (and (= x_months (- (+ (* 2020 12) 2) 24003)) (>= 28 x_beta))))
 (or (< x_months (- (+ (* 2020 12) 2) 24003)) $x1667)))
(assert
 (let ((?x1291 (+ x_beta 1)))
(let ((?x509 (+ (+ x_months 0) 24003)))
(let ((?x3634 (- ?x509 (* (div (- ?x509 1) 12) 12))))
(let ((?x2013 (ite (or (= ?x3634 4) (= ?x3634 6) (= ?x3634 9) (= ?x3634 11)) 30 31)))
(let (($x2381 (and (= (mod (div (- ?x509 1) 12) 4) 0) (and (distinct (mod (div (- ?x509 1) 12) 100) 0) true))))
(let (($x2075 (or $x2381 (= (mod (div (- ?x509 1) 12) 400) 0))))
(let ((?x2094 (ite (= ?x3634 2) (ite $x2075 29 28) ?x2013)))
(let (($x2803 (> 1 ?x1291)))
(let ((?x1514 (ite $x2803 1 (ite (> ?x1291 ?x2094) ?x2094 ?x1291))))
(let ((?x3821 (ite (> 1 ?x1514) 1 (ite (> ?x1514 ?x2094) ?x2094 ?x1514))))
(let ((?x1345 (ite (= 2 ?x3634) (ite $x2075 31 31) (ite (= 1 ?x3634) (ite $x2075 0 0) 0))))
(let ((?x3851 (ite (= 4 ?x3634) (ite $x2075 91 90) (ite (= 3 ?x3634) (ite $x2075 60 59) ?x1345))))
(let ((?x3079 (ite (= 6 ?x3634) (ite $x2075 152 151) (ite (= 5 ?x3634) (ite $x2075 121 120) ?x3851))))
(let ((?x3183 (ite (= 8 ?x3634) (ite $x2075 213 212) (ite (= 7 ?x3634) (ite $x2075 182 181) ?x3079))))
(let ((?x1799 (ite (= 10 ?x3634) (ite $x2075 274 273) (ite (= 9 ?x3634) (ite $x2075 244 243) ?x3183))))
(let ((?x2282 (ite (= 12 ?x3634) (ite $x2075 335 334) (ite (= 11 ?x3634) (ite $x2075 305 304) ?x1799))))
(let ((?x913 (+ (* 365 (- (div (- ?x509 1) 12) 1)) (div (- (div (- ?x509 1) 12) 1) 4))))
(let ((?x1865 (+ (- ?x913 (div (- (div (- ?x509 1) 12) 1) 100)) (div (- (div (- ?x509 1) 12) 1) 400))))
(let ((?x2336 (+ (+ (- (+ (+ ?x1865 ?x2282) (- ?x3821 1)) 730179) 366) 730179)))
(let ((?x4059 (mod ?x2336 146097)))
(let ((?x2420 (div ?x4059 36524)))
(let ((?x2581 (ite (<= 4 ?x2420) 3 ?x2420)))
(let ((?x2618 (- ?x4059 (* ?x2581 36524))))
(let ((?x1344 (mod ?x2618 1461)))
(let ((?x1855 (div ?x1344 365)))
(let ((?x2926 (ite (<= 4 ?x1855) 3 ?x1855)))
(let ((?x1565 (+ (+ (* (div ?x2336 146097) 400) (* ?x2581 100)) (* (div ?x2618 1461) 4))))
(let ((?x604 (+ (+ ?x1565 ?x2926) 1)))
(let (($x1722 (or (and (= (mod ?x604 4) 0) (and (distinct (mod ?x604 100) 0) true)) (= (mod ?x604 400) 0))))
(let ((?x3425 (- ?x1344 (* ?x2926 365))))
(let ((?x519 (ite $x1722 31 31)))
(let (($x2402 (>= ?x3425 ?x519)))
(let ((?x2751 (ite $x2402 (+ (- ?x3425 ?x519) 1) (+ (- ?x3425 (ite $x1722 0 0)) 1))))
(let ((?x612 (ite $x1722 60 59)))
(let (($x3925 (>= ?x3425 ?x612)))
(let ((?x2114 (ite $x1722 91 90)))
(let (($x3051 (>= ?x3425 ?x2114)))
(let ((?x4157 (ite $x3051 (+ (- ?x3425 ?x2114) 1) (ite $x3925 (+ (- ?x3425 ?x612) 1) ?x2751))))
(let ((?x841 (ite $x1722 121 120)))
(let (($x787 (>= ?x3425 ?x841)))
(let ((?x2391 (ite $x1722 152 151)))
(let (($x3126 (>= ?x3425 ?x2391)))
(let ((?x2789 (ite $x3126 (+ (- ?x3425 ?x2391) 1) (ite $x787 (+ (- ?x3425 ?x841) 1) ?x4157))))
(let ((?x483 (ite $x1722 182 181)))
(let (($x3939 (>= ?x3425 ?x483)))
(let ((?x3829 (ite $x1722 213 212)))
(let (($x3632 (>= ?x3425 ?x3829)))
(let ((?x2750 (ite $x3632 (+ (- ?x3425 ?x3829) 1) (ite $x3939 (+ (- ?x3425 ?x483) 1) ?x2789))))
(let ((?x2842 (ite $x1722 244 243)))
(let (($x2028 (>= ?x3425 ?x2842)))
(let ((?x2454 (ite $x1722 274 273)))
(let (($x1934 (>= ?x3425 ?x2454)))
(let ((?x4012 (ite $x1934 (+ (- ?x3425 ?x2454) 1) (ite $x2028 (+ (- ?x3425 ?x2842) 1) ?x2750))))
(let ((?x1328 (ite $x1722 305 304)))
(let (($x3898 (>= ?x3425 ?x1328)))
(let ((?x2048 (ite $x1722 335 334)))
(let (($x1228 (>= ?x3425 ?x2048)))
(let ((?x3732 (ite $x1228 (+ (- ?x3425 ?x2048) 1) (ite $x3898 (+ (- ?x3425 ?x1328) 1) ?x4012))))
(let (($x1617 (= 366 0)))
(let ((?x2154 (+ (+ x_months 12) 24003)))
(let ((?x449 (- ?x2154 (* (div (- ?x2154 1) 12) 12))))
(let ((?x1580 (ite (or (= ?x449 4) (= ?x449 6) (= ?x449 9) (= ?x449 11)) 30 31)))
(let (($x3715 (and (= (mod (div (- ?x2154 1) 12) 4) 0) (and (distinct (mod (div (- ?x2154 1) 12) 100) 0) true))))
(let (($x2029 (or $x3715 (= (mod (div (- ?x2154 1) 12) 400) 0))))
(let ((?x3796 (ite (= ?x449 2) (ite $x2029 29 28) ?x1580)))
(let ((?x2291 (ite $x2803 1 (ite (> ?x1291 ?x3796) ?x3796 ?x1291))))
(let ((?x3004 (ite (> 1 ?x2291) 1 (ite (> ?x2291 ?x3796) ?x3796 ?x2291))))
(let ((?x1640 (ite (= 2 ?x449) (ite $x2029 31 31) (ite (= 1 ?x449) (ite $x2029 0 0) 0))))
(let ((?x2903 (ite (= 4 ?x449) (ite $x2029 91 90) (ite (= 3 ?x449) (ite $x2029 60 59) ?x1640))))
(let ((?x970 (ite (= 6 ?x449) (ite $x2029 152 151) (ite (= 5 ?x449) (ite $x2029 121 120) ?x2903))))
(let ((?x1866 (ite (= 8 ?x449) (ite $x2029 213 212) (ite (= 7 ?x449) (ite $x2029 182 181) ?x970))))
(let ((?x4245 (ite (= 10 ?x449) (ite $x2029 274 273) (ite (= 9 ?x449) (ite $x2029 244 243) ?x1866))))
(let ((?x4280 (ite (= 12 ?x449) (ite $x2029 335 334) (ite (= 11 ?x449) (ite $x2029 305 304) ?x4245))))
(let ((?x1223 (+ (* 365 (- (div (- ?x2154 1) 12) 1)) (div (- (div (- ?x2154 1) 12) 1) 4))))
(let ((?x2735 (+ (- ?x1223 (div (- (div (- ?x2154 1) 12) 1) 100)) (div (- (div (- ?x2154 1) 12) 1) 400))))
(let ((?x1206 (+ (+ (- (+ (+ ?x2735 ?x4280) (- ?x3004 1)) 730179) 0) 730179)))
(let ((?x3180 (mod ?x1206 146097)))
(let ((?x2120 (div ?x3180 36524)))
(let ((?x1499 (ite (<= 4 ?x2120) 3 ?x2120)))
(let ((?x2236 (- ?x3180 (* ?x1499 36524))))
(let ((?x4261 (mod ?x2236 1461)))
(let ((?x4281 (div ?x4261 365)))
(let ((?x2111 (ite (<= 4 ?x4281) 3 ?x4281)))
(let ((?x2883 (+ (+ (* (div ?x1206 146097) 400) (* ?x1499 100)) (* (div ?x2236 1461) 4))))
(let ((?x1486 (+ (+ ?x2883 ?x2111) 1)))
(let (($x1215 (or (and (= (mod ?x1486 4) 0) (and (distinct (mod ?x1486 100) 0) true)) (= (mod ?x1486 400) 0))))
(let ((?x1140 (- ?x4261 (* ?x2111 365))))
(let ((?x452 (ite $x1215 31 31)))
(let (($x3103 (>= ?x1140 ?x452)))
(let ((?x1129 (ite $x3103 (+ (- ?x1140 ?x452) 1) (+ (- ?x1140 (ite $x1215 0 0)) 1))))
(let ((?x2100 (ite $x1215 60 59)))
(let (($x1909 (>= ?x1140 ?x2100)))
(let ((?x1474 (ite $x1215 91 90)))
(let (($x3328 (>= ?x1140 ?x1474)))
(let ((?x3211 (ite $x3328 (+ (- ?x1140 ?x1474) 1) (ite $x1909 (+ (- ?x1140 ?x2100) 1) ?x1129))))
(let ((?x2668 (ite $x1215 121 120)))
(let (($x3599 (>= ?x1140 ?x2668)))
(let ((?x3806 (ite $x1215 152 151)))
(let (($x1763 (>= ?x1140 ?x3806)))
(let ((?x1362 (ite $x1763 (+ (- ?x1140 ?x3806) 1) (ite $x3599 (+ (- ?x1140 ?x2668) 1) ?x3211))))
(let ((?x1655 (ite $x1215 182 181)))
(let (($x4041 (>= ?x1140 ?x1655)))
(let ((?x723 (ite $x1215 213 212)))
(let (($x2298 (>= ?x1140 ?x723)))
(let ((?x1471 (ite $x2298 (+ (- ?x1140 ?x723) 1) (ite $x4041 (+ (- ?x1140 ?x1655) 1) ?x1362))))
(let ((?x3106 (ite $x1215 244 243)))
(let (($x3752 (>= ?x1140 ?x3106)))
(let ((?x3803 (ite $x1215 274 273)))
(let (($x3471 (>= ?x1140 ?x3803)))
(let ((?x3354 (ite $x3471 (+ (- ?x1140 ?x3803) 1) (ite $x3752 (+ (- ?x1140 ?x3106) 1) ?x1471))))
(let ((?x1254 (ite $x1215 305 304)))
(let (($x762 (>= ?x1140 ?x1254)))
(let ((?x1922 (ite $x1215 335 334)))
(let (($x1312 (>= ?x1140 ?x1922)))
(let ((?x3584 (ite $x1312 (+ (- ?x1140 ?x1922) 1) (ite $x762 (+ (- ?x1140 ?x1254) 1) ?x3354))))
(let (($x4045 (= 0 0)))
(let ((?x1697 (ite $x787 5 (ite $x3051 4 (ite $x3925 3 (ite $x2402 2 1))))))
(let ((?x1882 (ite $x2028 9 (ite $x3632 8 (ite $x3939 7 (ite $x3126 6 ?x1697))))))
(let ((?x3221 (ite $x1228 12 (ite $x3898 11 (ite $x1934 10 ?x1882)))))
(let ((?x2678 (+ (* (ite $x1617 (div (- ?x509 1) 12) ?x604) 12) (ite $x1617 ?x3634 ?x3221))))
(let ((?x502 (ite $x3599 5 (ite $x3328 4 (ite $x1909 3 (ite $x3103 2 1))))))
(let ((?x963 (ite $x3752 9 (ite $x2298 8 (ite $x4041 7 (ite $x1763 6 ?x502))))))
(let ((?x3701 (+ (* (ite $x4045 (div (- ?x2154 1) 12) ?x1486) 12) (ite $x4045 ?x449 (ite $x1312 12 (ite $x762 11 (ite $x3471 10 ?x963)))))))
(let (($x2306 (and (= (- ?x3701 24003) (- ?x2678 24003)) (= (- (ite $x4045 ?x3004 ?x3584) 1) (- (ite $x1617 ?x3821 ?x3732) 1)))))
(not $x2306))))))))))))))))))))))))))))))))))))))))))))))))))))))))))))))))))))))))))))))))))))))))))))))))))))))))))))))))))))))))))))))
(check-sat)
